\ Model Quadratic Non-convex_copy
\ LP format - for model browsing. Use MPS format to capture full model detail.
Minimize
 
Subject To
 cons_3: l[0] + l[3] = 1
 cons_3: l[3] = 1.256
Bounds
 l[3] free
End
